NAME physical change_srl_ilp
* Max problem is converted into Min one
ROWS
 N  OBJ
 L  constraint1_1950
 L  constraint2_1950
 L  constraint2_1951
 L  constraint2_1952
 L  constraint2_1953
 L  constraint2_5920
 L  constraint2_5921
 L  constraint2_5922
 L  constraint2_5923
COLUMNS
    MARKER    'MARKER'                 'INTORG'
    Z_195_0_0  OBJ       -8.4599232449801779e-03
    Z_195_0_0  constraint1_1950  1
    Z_195_0_0  constraint2_1950  1
    Z_195_0_1  OBJ       -2.7683063025297563e-02
    Z_195_0_1  constraint1_1950  1
    Z_195_0_1  constraint2_1951  1
    Z_195_0_2  OBJ       -1.1087263677361742e-01
    Z_195_0_2  constraint1_1950  1
    Z_195_0_2  constraint2_1952  1
    Z_195_0_3  OBJ       -1.6104698297554662e-03
    Z_195_0_3  constraint1_1950  1
    Z_195_0_3  constraint2_1953  1
    Z_195_0_4  OBJ       -7.5137390712634944e-01
    Z_195_0_4  constraint1_1950  1
    MARKER    'MARKER'                 'INTEND'
RHS
    RHS1      constraint1_1950  1
    RHS1      constraint2_1950  1
    RHS1      constraint2_1951  1
    RHS1      constraint2_1952  1
    RHS1      constraint2_1953  1
    RHS1      constraint2_5920  1
    RHS1      constraint2_5921  1
    RHS1      constraint2_5922  1
    RHS1      constraint2_5923  1
BOUNDS
 UP BND1      Z_195_0_0  1
 UP BND1      Z_195_0_1  1
 UP BND1      Z_195_0_2  1
 UP BND1      Z_195_0_3  1
 UP BND1      Z_195_0_4  1
ENDATA
